100
150
100
99
98
96
96
96
96
96
96
94
93
93
92
92
92
91
91
91
90
87
84
83
83
79
78
78
77
77
76
76
75
75
75
73
73
73
72
72
72
72
72
71
71
70
70
66
66
65
64
63
59
58
57
56
56
55
55
54
53
53
52
51
49
47
46
46
45
44
43
43
42
41
41
39
39
38
37
35
35
34
34
33
33
32
32
32
32
31
30
30
29
28
24
23
22
22
22
22
21
20
